NAME : XML100_3122_15
DIMENSION : 101
NB_CLUSTERS : 20
CLUSTERING_ALG : DBSCAN
CLUSTERING_PARAMS : eps(87), minSamples(3)
CLUSTERS
1 0
2 1 20 29 31 51 61 77
3 3 33 38 67 88
4 4 12 17 21 23 43 48 65 81 82 84 89
5 9 13 16 36 54 93 96 97
6 10 68 71 85 94
7 6 11 28 32 35 45 62 92
8 14 80 86
9 18 40 50 55 57 63 72 73 74 78 79 91
10 19 39 49 58 75 95
11 24 34 41 100
12 27 56 66
13 2 15 22 37 87 90
14 25 44 76
15 47 98 99
16 5 26 52 59 60
17 7 30 42 69
18 8 46
19 53 70
20 64 83
EOF